c WARNING: for repeatability, setting FPU to use double precision
d VARIABLES            72522        
d CONSTRAINTS          257064       
c ============================[ Problem Statistics ]=============================
c |                                                                             |
c |  Number of variables:         72522                                         |
c |  Number of clauses:          257064                                         |
c |  Parse time:                   0.05 s                                       |
c |                                                                             |
c ============================[ Search Statistics ]==============================
c | Conflicts |          ORIGINAL         |          LEARNT          | Progress |
c |           |    Vars  Clauses Literals |    Limit  Clauses Lit/Cl |          |
c ===============================================================================
c |       100 |   53247   207434   521701 |    76059       98      4 | 26.578 % |
c |       250 |   53246   207422   521671 |    83665      247      8 | 26.580 % |
c |       475 |   53246   207422   521671 |    92031      472      8 | 26.580 % |
c |       812 |   53246   207422   521671 |   101234      809     21 | 26.580 % |
c |      1318 |   53246   207422   521671 |   111358     1315     21 | 26.580 % |
c |      2077 |   53246   207422   521671 |   122493     2074     19 | 26.580 % |
c |      3216 |   53246   207422   521671 |   134743     3213     45 | 26.580 % |
c |      4924 |   53246   207422   521671 |   148217     4921     41 | 26.580 % |
c |      7486 |   53246   207422   521671 |   163039     7483     67 | 26.580 % |
c |     11330 |   53245   207418   521661 |   179343    11326     81 | 26.581 % |
c |     17096 |   53244   207414   521651 |   197277    17091     81 | 26.582 % |
c |     25745 |   53243   207406   521633 |   217005    25737     79 | 26.584 % |
c ===============================================================================
c restarts              : 94
c conflicts             : 26527          (4078 /sec)
c decisions             : 254169         (0.00 % random) (39076 /sec)
c propagations          : 45570119       (7006039 /sec)
c conflict literals     : 2076194        (7.41 % deleted)
d RESTARTS             94
d FAILURES             26527        
d NODES                254169       
d BACKTRACKS           254169       
d PROPAGATIONS         45570119     
d NOGOODSIZE           78.27 
d MEMORY               37.00 
d TIME                 6.50441 

s SATISFIABLE
